c Command line: hgen8 165 80
p cnf 165 259
106 94 29 86 0
105 162 37 65 0
34 9 156 53 0
113 91 1 100 0
30 3 14 4 0
157 119 28 122 0
93 87 143 131 0
153 144 17 127 0
49 132 125 5 0
42 44 150 85 0
152 151 138 11 0
23 25 97 141 0
6 111 54 59 0
117 133 19 27 0
103 140 96 68 0
126 40 128 56 0
134 164 130 55 0
51 33 22 61 0
95 32 114 92 0
74 60 82 163 0
101 107 118 7 0
41 102 115 15 0
67 36 148 78 0
88 110 13 46 0
62 76 89 123 0
108 129 84 161 0
109 66 99 165 0
137 52 135 146 0
145 50 77 112 0
83 116 90 75 0
98 26 142 45 0
47 159 80 64 0
70 154 8 158 0
12 104 81 20 0
-1 -3 0
-1 -4 0
-1 -5 0
-3 -4 0
-3 -5 0
-4 -5 0
-6 -7 0
-6 -8 0
-6 -9 0
-7 -8 0
-7 -9 0
-8 -9 0
-11 -12 0
-11 -13 0
-11 -14 0
-11 -15 0
-12 -13 0
-12 -14 0
-12 -15 0
-13 -14 0
-13 -15 0
-14 -15 0
-17 -19 0
-17 -20 0
-19 -20 0
-22 -23 0
-22 -25 0
-23 -25 0
-26 -27 0
-26 -28 0
-26 -29 0
-26 -30 0
-27 -28 0
-27 -29 0
-27 -30 0
-28 -29 0
-28 -30 0
-29 -30 0
-32 -33 0
-32 -34 0
-33 -34 0
-36 -37 0
-36 -40 0
-37 -40 0
-41 -42 0
-41 -44 0
-41 -45 0
-42 -44 0
-42 -45 0
-44 -45 0
-46 -47 0
-46 -49 0
-46 -50 0
-47 -49 0
-47 -50 0
-49 -50 0
-51 -52 0
-51 -53 0
-51 -54 0
-51 -55 0
-52 -53 0
-52 -54 0
-52 -55 0
-53 -54 0
-53 -55 0
-54 -55 0
-56 -59 0
-56 -60 0
-59 -60 0
-61 -62 0
-61 -64 0
-61 -65 0
-62 -64 0
-62 -65 0
-64 -65 0
-66 -67 0
-66 -68 0
-66 -70 0
-67 -68 0
-67 -70 0
-68 -70 0
-74 -75 0
-76 -77 0
-76 -78 0
-76 -80 0
-77 -78 0
-77 -80 0
-78 -80 0
-81 -82 0
-81 -83 0
-81 -84 0
-81 -85 0
-82 -83 0
-82 -84 0
-82 -85 0
-83 -84 0
-83 -85 0
-84 -85 0
-86 -87 0
-86 -88 0
-86 -89 0
-86 -90 0
-87 -88 0
-87 -89 0
-87 -90 0
-88 -89 0
-88 -90 0
-89 -90 0
-91 -92 0
-91 -93 0
-91 -94 0
-91 -95 0
-92 -93 0
-92 -94 0
-92 -95 0
-93 -94 0
-93 -95 0
-94 -95 0
-96 -97 0
-96 -98 0
-96 -99 0
-96 -100 0
-97 -98 0
-97 -99 0
-97 -100 0
-98 -99 0
-98 -100 0
-99 -100 0
-101 -102 0
-101 -103 0
-101 -104 0
-101 -105 0
-102 -103 0
-102 -104 0
-102 -105 0
-103 -104 0
-103 -105 0
-104 -105 0
-106 -107 0
-106 -108 0
-106 -109 0
-106 -110 0
-107 -108 0
-107 -109 0
-107 -110 0
-108 -109 0
-108 -110 0
-109 -110 0
-111 -112 0
-111 -113 0
-111 -114 0
-111 -115 0
-112 -113 0
-112 -114 0
-112 -115 0
-113 -114 0
-113 -115 0
-114 -115 0
-116 -117 0
-116 -118 0
-116 -119 0
-117 -118 0
-117 -119 0
-118 -119 0
-122 -123 0
-122 -125 0
-123 -125 0
-126 -127 0
-126 -128 0
-126 -129 0
-126 -130 0
-127 -128 0
-127 -129 0
-127 -130 0
-128 -129 0
-128 -130 0
-129 -130 0
-131 -132 0
-131 -133 0
-131 -134 0
-131 -135 0
-132 -133 0
-132 -134 0
-132 -135 0
-133 -134 0
-133 -135 0
-134 -135 0
-137 -138 0
-137 -140 0
-138 -140 0
-141 -142 0
-141 -143 0
-141 -144 0
-141 -145 0
-142 -143 0
-142 -144 0
-142 -145 0
-143 -144 0
-143 -145 0
-144 -145 0
-146 -148 0
-146 -150 0
-148 -150 0
-151 -152 0
-151 -153 0
-151 -154 0
-152 -153 0
-152 -154 0
-153 -154 0
-156 -157 0
-156 -158 0
-156 -159 0
-157 -158 0
-157 -159 0
-158 -159 0
-161 -162 0
-161 -163 0
-161 -164 0
-161 -165 0
-162 -163 0
-162 -164 0
-162 -165 0
-163 -164 0
-163 -165 0
-164 -165 0
